

******************************************************************************
This program contains Ipopt, a library for large-scale nonlinear optimization.
 Ipopt is released as open source code under the Eclipse Public License (EPL).
         For more information visit https://github.com/coin-or/Ipopt
******************************************************************************

This is Ipopt version 3.14.11, running with linear solver MUMPS 5.5.1.

Number of nonzeros in equality constraint Jacobian...:        2
Number of nonzeros in inequality constraint Jacobian.:        0
Number of nonzeros in Lagrangian Hessian.............:        1

Total number of variables............................:        2
                     variables with only lower bounds:        0
                variables with lower and upper bounds:        0
                     variables with only upper bounds:        0
Total number of equality constraints.................:        1
Total number of inequality constraints...............:        0
        inequality constraints with only lower bounds:        0
   inequality constraints with lower and upper bounds:        0
        inequality constraints with only upper bounds:        0

iter    objective    inf_pr   inf_du lg(mu)  ||d||  lg(rg) alpha_du alpha_pr  ls
   0  4.8400000e+00 4.40e+00 1.56e+00  -1.0 0.00e+00    -  0.00e+00 0.00e+00   0
   1  1.5175599e+00 9.37e+00 1.88e+00  -1.0 1.88e+00   0.0 1.00e+00 1.00e+00f  1
   2  1.5057311e+00 6.05e+01 5.42e-01  -1.0 2.46e+00   0.4 1.00e+00 1.00e+00f  1
   3  2.1067038e+00 4.31e-14 2.90e+00  -1.0 5.88e+00    -  1.00e+00 1.00e+00H  1
   4  4.9303807e-32 2.11e+01 4.44e-16  -1.0 1.45e+00    -  1.00e+00 1.00e+00f  1
   5  0.0000000e+00 0.00e+00 0.00e+00  -1.0 2.11e+00    -  1.00e+00 1.00e+00h  1

Number of Iterations....: 5

                                   (scaled)                 (unscaled)
Objective...............:   0.0000000000000000e+00    0.0000000000000000e+00
Dual infeasibility......:   0.0000000000000000e+00    0.0000000000000000e+00
Constraint violation....:   0.0000000000000000e+00    0.0000000000000000e+00
Variable bound violation:   0.0000000000000000e+00    0.0000000000000000e+00
Complementarity.........:   0.0000000000000000e+00    0.0000000000000000e+00
Overall NLP error.......:   0.0000000000000000e+00    0.0000000000000000e+00


Number of objective function evaluations             = 7
Number of objective gradient evaluations             = 6
Number of equality constraint evaluations            = 7
Number of inequality constraint evaluations          = 0
Number of equality constraint Jacobian evaluations   = 6
Number of inequality constraint Jacobian evaluations = 0
Number of Lagrangian Hessian evaluations             = 5
Total seconds in IPOPT                               = 0.004

EXIT: Optimal Solution Found.
 
Ipopt 3.14.11: Optimal Solution Found
